NAME : portcgen-22-27
COMMENT : portcgen N=22, seed=27
TYPE : TSP
DIMENSION : 22
EDGE_WEIGHT_TYPE : EUC_2D
NODE_COORD_SECTION
1 -7891 411580
2 18400 -73238
3 -50898 244864
4 130409 213747
5 -62023 123587
6 -17925 -102753
7 -271400 124080
8 -38562 234018
9 75610 134073
10 -16564 111876
11 -196983 -280958
12 -280466 -286006
13 42592 -54210
14 51009 -233271
15 -122907 122256
16 218870 -129981
17 282283 169868
18 214855 -184256
19 74082 267783
20 -278774 228657
21 50697 328861
22 -2976 495969
